certificates/rado_a15_c230_N48.cnf
c Rad2 upper bound instance: x1 + 15*x2 - x3 = 230, interval [1,48]
p cnf 48 306
1 11 16 0
-1 -11 -16 0
1 17 26 0
-1 -17 -26 0
1 18 41 0
-1 -18 -41 0
2 12 16 0
-2 -12 -16 0
2 17 27 0
-2 -17 -27 0
2 18 42 0
-2 -18 -42 0
3 13 16 0
-3 -13 -16 0
3 17 28 0
-3 -17 -28 0
3 18 43 0
-3 -18 -43 0
4 14 16 0
-4 -14 -16 0
4 17 29 0
-4 -17 -29 0
4 18 44 0
-4 -18 -44 0
5 15 16 0
-5 -15 -16 0
5 17 30 0
-5 -17 -30 0
5 18 45 0
-5 -18 -45 0
1 6 15 0
-1 -6 -15 0
6 16 0
-6 -16 0
6 17 31 0
-6 -17 -31 0
6 18 46 0
-6 -18 -46 0
2 7 15 0
-2 -7 -15 0
7 16 17 0
-7 -16 -17 0
7 17 32 0
-7 -17 -32 0
7 18 47 0
-7 -18 -47 0
3 8 15 0
-3 -8 -15 0
8 16 18 0
-8 -16 -18 0
8 17 33 0
-8 -17 -33 0
8 18 48 0
-8 -18 -48 0
4 9 15 0
-4 -9 -15 0
9 16 19 0
-9 -16 -19 0
9 17 34 0
-9 -17 -34 0
5 10 15 0
-5 -10 -15 0
10 16 20 0
-10 -16 -20 0
10 17 35 0
-10 -17 -35 0
6 11 15 0
-6 -11 -15 0
11 16 21 0
-11 -16 -21 0
11 17 36 0
-11 -17 -36 0
7 12 15 0
-7 -12 -15 0
12 16 22 0
-12 -16 -22 0
12 17 37 0
-12 -17 -37 0
8 13 15 0
-8 -13 -15 0
13 16 23 0
-13 -16 -23 0
13 17 38 0
-13 -17 -38 0
9 14 15 0
-9 -14 -15 0
14 16 24 0
-14 -16 -24 0
14 17 39 0
-14 -17 -39 0
10 15 0
-10 -15 0
15 16 25 0
-15 -16 -25 0
15 17 40 0
-15 -17 -40 0
11 15 16 0
-11 -15 -16 0
16 26 0
-16 -26 0
16 17 41 0
-16 -17 -41 0
12 15 17 0
-12 -15 -17 0
16 17 27 0
-16 -17 -27 0
17 42 0
-17 -42 0
13 15 18 0
-13 -15 -18 0
16 18 28 0
-16 -18 -28 0
17 18 43 0
-17 -18 -43 0
14 15 19 0
-14 -15 -19 0
16 19 29 0
-16 -19 -29 0
17 19 44 0
-17 -19 -44 0
15 20 0
-15 -20 0
16 20 30 0
-16 -20 -30 0
17 20 45 0
-17 -20 -45 0
1 14 21 0
-1 -14 -21 0
15 16 21 0
-15 -16 -21 0
16 21 31 0
-16 -21 -31 0
17 21 46 0
-17 -21 -46 0
2 14 22 0
-2 -14 -22 0
15 17 22 0
-15 -17 -22 0
16 22 32 0
-16 -22 -32 0
17 22 47 0
-17 -22 -47 0
3 14 23 0
-3 -14 -23 0
15 18 23 0
-15 -18 -23 0
16 23 33 0
-16 -23 -33 0
17 23 48 0
-17 -23 -48 0
4 14 24 0
-4 -14 -24 0
15 19 24 0
-15 -19 -24 0
16 24 34 0
-16 -24 -34 0
5 14 25 0
-5 -14 -25 0
15 20 25 0
-15 -20 -25 0
16 25 35 0
-16 -25 -35 0
6 14 26 0
-6 -14 -26 0
15 21 26 0
-15 -21 -26 0
16 26 36 0
-16 -26 -36 0
7 14 27 0
-7 -14 -27 0
15 22 27 0
-15 -22 -27 0
16 27 37 0
-16 -27 -37 0
8 14 28 0
-8 -14 -28 0
15 23 28 0
-15 -23 -28 0
16 28 38 0
-16 -28 -38 0
9 14 29 0
-9 -14 -29 0
15 24 29 0
-15 -24 -29 0
16 29 39 0
-16 -29 -39 0
10 14 30 0
-10 -14 -30 0
15 25 30 0
-15 -25 -30 0
16 30 40 0
-16 -30 -40 0
11 14 31 0
-11 -14 -31 0
15 26 31 0
-15 -26 -31 0
16 31 41 0
-16 -31 -41 0
12 14 32 0
-12 -14 -32 0
15 27 32 0
-15 -27 -32 0
16 32 42 0
-16 -32 -42 0
13 14 33 0
-13 -14 -33 0
15 28 33 0
-15 -28 -33 0
16 33 43 0
-16 -33 -43 0
14 34 0
-14 -34 0
15 29 34 0
-15 -29 -34 0
16 34 44 0
-16 -34 -44 0
14 15 35 0
-14 -15 -35 0
15 30 35 0
-15 -30 -35 0
16 35 45 0
-16 -35 -45 0
1 13 36 0
-1 -13 -36 0
14 16 36 0
-14 -16 -36 0
15 31 36 0
-15 -31 -36 0
16 36 46 0
-16 -36 -46 0
2 13 37 0
-2 -13 -37 0
14 17 37 0
-14 -17 -37 0
15 32 37 0
-15 -32 -37 0
16 37 47 0
-16 -37 -47 0
3 13 38 0
-3 -13 -38 0
14 18 38 0
-14 -18 -38 0
15 33 38 0
-15 -33 -38 0
16 38 48 0
-16 -38 -48 0
4 13 39 0
-4 -13 -39 0
14 19 39 0
-14 -19 -39 0
15 34 39 0
-15 -34 -39 0
5 13 40 0
-5 -13 -40 0
14 20 40 0
-14 -20 -40 0
15 35 40 0
-15 -35 -40 0
6 13 41 0
-6 -13 -41 0
14 21 41 0
-14 -21 -41 0
15 36 41 0
-15 -36 -41 0
7 13 42 0
-7 -13 -42 0
14 22 42 0
-14 -22 -42 0
15 37 42 0
-15 -37 -42 0
8 13 43 0
-8 -13 -43 0
14 23 43 0
-14 -23 -43 0
15 38 43 0
-15 -38 -43 0
9 13 44 0
-9 -13 -44 0
14 24 44 0
-14 -24 -44 0
15 39 44 0
-15 -39 -44 0
10 13 45 0
-10 -13 -45 0
14 25 45 0
-14 -25 -45 0
15 40 45 0
-15 -40 -45 0
11 13 46 0
-11 -13 -46 0
14 26 46 0
-14 -26 -46 0
15 41 46 0
-15 -41 -46 0
12 13 47 0
-12 -13 -47 0
14 27 47 0
-14 -27 -47 0
15 42 47 0
-15 -42 -47 0
13 48 0
-13 -48 0
14 28 48 0
-14 -28 -48 0
15 43 48 0
-15 -43 -48 0
