certificates/rado_a15_c230_N48.drat
15 -48 0
42 -48 0
-48 0
13 0
-15 0
10 0
20 0
43 0
-16 0
-45 0
-8 0
6 0
25 0
26 0
21 0
5 0
38 0
35 0
11 0
40 0
3 0
18 0
-41 0
-14 0
0
